\ SCIP STATISTICS
\   Problem name     : model
\   Variables        : 2 (0 binary, 0 integer, 0 implicit integer, 2 continuous)
\   Constraints      : 3
Maximize
 Obj: +40 gas +50 chloride
Subject to
 c1: +1 gas +1 chloride <= +50
 c2: +3 gas +4 chloride <= +100
 c3: +1 chloride <= +40
Bounds
End
